
List of user-set options:

                                    Name   Value                used
                           compl_inf_tol = 1                     yes
                         constr_viol_tol = 1                     yes
                            dual_inf_tol = 1000                  yes
                           linear_solver = ma97                  yes
                              ma86_small = 1e-30                  no
                                  ma86_u = 0.0001                 no
                              ma97_order = best                  yes
                              ma97_small = 1e-30                 yes
                            ma97_switch1 = at_start              yes
                            ma97_switch2 = od_hd_reuse           yes
                                  ma97_u = 1e-06                 yes
                               ma97_umax = 0.5                   yes
                                max_iter = 1000                  yes
                    max_refinement_steps = 20                    yes
                    min_refinement_steps = 5                     yes
                                 mu_init = 1e-06                 yes
           mu_superlinear_decrease_power = 1.25                  yes
                   nlp_scaling_min_value = 1e-08                 yes
                        option_file_name = Preset_Case_605_pf.opt  yes
                             output_file = ./tmp/Preset_Case_605_pf.output  yes
                      print_user_options = yes                   yes
        required_infeasibility_reduction = 1                      no
                                     tol = 1e-08                 yes
                   warm_start_bound_frac = 1e-20                 yes
                   warm_start_bound_push = 1e-20                 yes
                   warm_start_init_point = yes                   yes
              warm_start_mult_bound_push = 1e-20                 yes
                warm_start_mult_init_max = 1e+40                 yes
             warm_start_slack_bound_frac = 1e-20                 yes
             warm_start_slack_bound_push = 1e-20                 yes

******************************************************************************
This program contains Ipopt, a library for large-scale nonlinear optimization.
 Ipopt is released as open source code under the Eclipse Public License (EPL).
         For more information visit http://projects.coin-or.org/Ipopt
******************************************************************************

This is Ipopt version 3.12.10, running with linear solver ma97.

Number of nonzeros in equality constraint Jacobian...:   123442
Number of nonzeros in inequality constraint Jacobian.:      213
Number of nonzeros in Lagrangian Hessian.............:    49069

Total number of variables............................:    31591
                     variables with only lower bounds:    12912
                variables with lower and upper bounds:    15130
                     variables with only upper bounds:        0
Total number of equality constraints.................:    31483
Total number of inequality constraints...............:       25
        inequality constraints with only lower bounds:        4
   inequality constraints with lower and upper bounds:        0
        inequality constraints with only upper bounds:       21

iter    objective    inf_pr   inf_du lg(mu)  ||d||  lg(rg) alpha_du alpha_pr  ls
   0 -5.3902503e+00 5.11e-03 1.02e+00  -6.0 0.00e+00    -  0.00e+00 0.00e+00   0
   1 -5.3911254e+00 6.14e+00 2.78e+01  -6.0 4.27e+05    -  7.41e-05 8.93e-04h  1
   2 -5.3913002e+00 6.13e+00 7.55e+01  -6.0 3.43e+03    -  1.70e-01 5.33e-04f  1
   3 -5.3898366e+00 6.13e+00 2.21e+03  -6.0 1.25e+04    -  5.05e-03 6.11e-04h  9
   4 -5.4088525e+00 4.02e+00 9.11e+03  -6.0 2.65e+03    -  5.96e-03 3.47e-01H  1
   5 -5.4922344e+00 4.44e+00 7.27e+03  -6.0 1.80e+03    -  1.21e-01 2.01e-01h  1
   6 -5.6981586e+00 1.18e+01 3.68e+03  -6.0 1.60e+03    -  5.85e-01 4.92e-01h  1
   7 -5.7034854e+00 1.13e+01 1.04e+04  -6.0 2.35e+01  -4.0 3.02e-01 4.05e-02h  1
   8 -5.7186315e+00 9.98e+00 8.97e+03  -6.0 2.10e+01  -4.5 4.27e-02 1.18e-01h  1
   9 -5.8161186e+00 1.77e+00 4.43e+03  -6.0 2.11e+01  -5.0 2.58e-01 8.23e-01h  1
iter    objective    inf_pr   inf_du lg(mu)  ||d||  lg(rg) alpha_du alpha_pr  ls
  10 -5.8205293e+00 1.47e-01 7.99e+03  -6.0 5.68e+01  -5.4 5.34e-01 1.00e+00h  1
  11 -5.8293915e+00 2.08e-01 1.94e+04  -6.0 7.06e+01  -5.9 6.62e-02 1.00e+00h  1
  12 -5.8672982e+00 9.65e-01 1.39e+04  -6.0 6.96e+01  -6.4 4.13e-01 1.00e+00h  1
  13 -5.8797503e+00 5.65e-01 4.33e+03  -6.0 1.34e+02  -6.9 2.99e-01 1.00e+00h  1
  14 -5.8813381e+00 5.40e-01 4.25e+03  -6.0 2.41e+02  -7.3 3.69e-01 4.96e-02h  1
  15 -5.8846834e+00 4.09e-01 3.79e+04  -6.0 9.97e+01  -6.9 1.00e+00 2.90e-01h  1
  16 -5.8907575e+00 3.52e-01 3.14e+04  -6.0 4.05e+02  -7.4 2.97e-01 2.64e-01h  1
  17 -5.9146869e+00 1.03e+01 2.15e+04  -6.0 2.83e+03  -7.9 6.70e-02 2.64e-01h  1
  18 -5.9168735e+00 1.03e+01 4.42e+03  -6.0 6.03e+03  -8.3 8.18e-02 1.06e-02h  1
  19 -5.9208290e+00 1.87e+01 8.77e+03  -6.0 3.37e+04  -8.8 4.53e-03 3.02e-02h  1
iter    objective    inf_pr   inf_du lg(mu)  ||d||  lg(rg) alpha_du alpha_pr  ls
  20 -5.9342453e+00 1.77e+01 7.88e+03  -6.0 8.49e+02  -6.6 4.36e-02 5.29e-02h  1
  21 -5.9235055e+00 1.17e+01 2.00e+06  -6.0 9.31e+01  -5.3 1.82e-02 3.41e-01h  1
  22 -5.9280359e+00 1.03e+01 1.76e+06  -6.0 1.56e+02  -5.7 2.02e-02 1.16e-01h  1
  23 -5.9259616e+00 8.25e+00 1.41e+06  -6.0 1.26e+01  -5.3 1.21e-01 2.01e-01h  1
  24 -5.9242747e+00 7.05e+00 1.20e+06  -6.0 5.10e+01  -5.8 1.76e-03 1.46e-01h  1
  25 -5.9235322e+00 6.19e+00 1.06e+06  -6.0 3.95e+01  -6.3 6.21e-01 1.22e-01h  1
  26 -5.9229048e+00 8.80e-01 1.50e+05  -6.0 8.76e+01  -6.7 3.44e-01 8.61e-01h  1
  27 -5.9299572e+00 5.73e-01 9.15e+04  -6.0 1.57e+02  -7.2 1.00e+00 3.92e-01h  1
  28 -5.9344384e+00 3.43e-01 5.18e+04  -6.0 4.43e+02  -7.7 8.50e-01 4.36e-01h  1
  29 -5.9391041e+00 3.98e-01 3.21e+04  -6.0 1.93e+02  -7.3 1.15e-01 3.82e-01h  1
iter    objective    inf_pr   inf_du lg(mu)  ||d||  lg(rg) alpha_du alpha_pr  ls
  30 -5.9408373e+00 3.47e-01 2.71e+04  -6.0 2.95e+02  -6.8 2.07e-01 1.57e-01h  1
  31 -5.9429671e+00 7.65e-01 3.62e+01  -6.0 1.88e+02  -7.3 3.07e-01 1.00e+00h  1
  32 -5.9427782e+00 8.01e-03 4.50e+00  -6.0 9.54e+00  -5.1 8.14e-01 1.00e+00h  1
  33 -5.9431827e+00 1.56e-03 2.62e-02  -6.0 5.44e+00  -5.6 1.00e+00 1.00e+00h  1
  34 -5.9443918e+00 1.08e-02 2.05e-01  -6.0 1.68e+01  -6.0 1.00e+00 1.00e+00h  1
  35 -5.9475880e+00 6.18e-02 1.26e+00  -6.0 4.49e+01  -6.5 1.00e+00 1.00e+00h  1
  36 -5.9555300e+00 3.27e-01 4.88e+00  -6.0 1.32e+02  -7.0 1.00e+00 1.00e+00h  1
  37 -5.9790579e+00 9.24e+00 9.06e+01  -6.0 3.68e+03  -7.5 5.77e-02 2.01e-01h  1
  38 -6.0729153e+00 1.17e+01 1.49e+03  -6.0 9.97e+03    -  6.72e-02 2.67e-01h  1
  39 -6.0734849e+00 1.17e+01 1.49e+03  -6.0 1.52e+04    -  9.80e-03 1.71e-03h  1
iter    objective    inf_pr   inf_du lg(mu)  ||d||  lg(rg) alpha_du alpha_pr  ls
  40 -6.0857726e+00 5.43e+00 8.16e+02  -6.0 1.74e+03    -  4.17e-01 5.55e-01h  1
  41 -6.0881883e+00 4.93e+00 3.00e+03  -6.0 8.19e+02    -  2.46e-01 9.24e-02h  1
  42 -6.0950808e+00 2.36e+00 1.94e+02  -6.0 7.41e+02    -  5.46e-01 6.30e-01h  1
  43 -6.0990874e+00 1.65e+00 1.39e+04  -6.0 5.59e+02    -  7.71e-01 4.00e-01h  1
  44 -6.1053132e+00 1.14e+00 5.62e+03  -6.0 5.52e+02    -  5.91e-01 5.89e-01h  1
  45 -6.1124393e+00 7.60e-01 2.00e+04  -6.0 4.93e+02    -  4.42e-01 6.21e-01h  1
  46 -6.1252867e+00 1.24e+00 2.85e+04  -6.0 3.68e+02    -  9.09e-01 1.00e+00h  1
  47 -6.1315962e+00 1.05e+00 3.29e+05  -6.0 2.66e+02  -8.0 7.87e-01 3.61e-01h  1
  48 -6.1352545e+00 9.86e-01 5.20e+05  -6.0 3.91e+02  -8.4 2.95e-01 1.57e-01h  1
  49r-6.1352545e+00 9.86e-01 1.00e+03  -0.0 0.00e+00  -8.9 0.00e+00 8.54e-08R  2
iter    objective    inf_pr   inf_du lg(mu)  ||d||  lg(rg) alpha_du alpha_pr  ls
  50r-6.1498708e+00 9.84e-01 1.00e+03  -0.0 1.03e+04    -  7.51e-06 1.77e-06f  1
  51 -6.1490968e+00 9.36e-01 5.65e+05  -6.0 7.41e+00    -  3.99e-01 4.91e-02h  1
  52 -6.1417440e+00 4.84e-01 5.99e+06  -6.0 5.57e+00    -  4.91e-02 4.83e-01h  1
  53 -6.1336460e+00 6.03e-04 5.23e+01  -6.0 2.81e+00    -  7.56e-01 1.00e+00h  1
  54 -6.1337685e+00 1.47e-05 2.59e+00  -6.0 6.76e-01    -  9.77e-01 1.00e+00h  1
  55 -6.1347719e+00 9.18e-03 4.54e-01  -6.0 1.69e+01    -  9.35e-01 1.00e+00h  1
  56 -6.1394916e+00 3.85e-01 1.49e+00  -6.0 1.09e+02    -  9.67e-01 1.00e+00h  1
  57 -6.1396147e+00 1.80e-01 7.63e-01  -6.0 7.55e+01    -  9.87e-01 1.00e+00h  1
  58 -6.1387679e+00 5.63e-03 5.67e-02  -6.0 1.69e+01    -  1.00e+00 1.00e+00h  1
  59 -6.1387209e+00 5.81e-04 1.55e-02  -6.0 3.76e+00    -  1.00e+00 1.00e+00h  1
iter    objective    inf_pr   inf_du lg(mu)  ||d||  lg(rg) alpha_du alpha_pr  ls
  60 -6.1387159e+00 1.23e-06 6.67e-05  -6.0 1.73e-01    -  1.00e+00 1.00e+00h  1
  61 -6.1387158e+00 2.83e-09 9.00e-08  -6.0 8.29e-03    -  1.00e+00 1.00e+00h  1
  62 -6.1387871e+00 1.70e-02 4.99e+01  -7.5 3.97e+01    -  9.54e-01 7.82e-01h  1
  63 -6.1387904e+00 3.61e-03 9.09e+00  -7.5 9.42e+00    -  1.00e+00 8.56e-01h  1
  64 -6.1387900e+00 3.10e-05 1.22e-02  -7.5 1.32e+00    -  1.00e+00 1.00e+00h  1
  65 -6.1387900e+00 2.81e-10 1.79e-09  -7.5 8.88e-04    -  1.00e+00 1.00e+00h  1
  66 -6.1387916e+00 2.15e-05 7.06e-01  -9.0 1.30e+00    -  9.24e-01 8.47e-01h  1
  67 -6.1387919e+00 7.10e-07 3.22e-01  -9.0 2.00e-01    -  9.20e-01 1.00e+00f  1
  68 -6.1387919e+00 2.93e-10 1.26e-08  -9.0 3.54e-05    -  1.00e+00 1.00e+00h  1
  69 -6.1387919e+00 2.93e-10 1.59e-10  -9.0 3.77e-06    -  1.00e+00 1.00e+00h  1

Number of Iterations....: 69

                                   (scaled)                 (unscaled)
Objective...............:  -4.7959311368082256e+00   -6.1387918551145289e+00
Dual infeasibility......:   1.5946556894732001e-10    2.0411592825256961e-10
Constraint violation....:   2.9299076142672020e-10    2.9299076142672020e-10
Complementarity.........:   9.1293732413218158e-10    1.1685597748891924e-09
Overall NLP error.......:   9.1293732413218158e-10    1.1685597748891924e-09


Number of objective function evaluations             = 83
Number of objective gradient evaluations             = 70
Number of equality constraint evaluations            = 83
Number of inequality constraint evaluations          = 83
Number of equality constraint Jacobian evaluations   = 71
Number of inequality constraint Jacobian evaluations = 71
Number of Lagrangian Hessian evaluations             = 69
Total CPU secs in IPOPT (w/o function evaluations)   =    184.869
Total CPU secs in NLP function evaluations           =      2.875

EXIT: Optimal Solution Found.
